(set-info :smt-lib-version 2.6)
(set-logic QF_UFLRA)
(set-info :source |
MathSat group

|)
(set-info :category "random")
(set-info :status sat)
(declare-fun x0 () Real)
(declare-fun x1 () Real)
(declare-fun x2 () Real)
(declare-fun x3 () Real)
(declare-fun x4 () Real)
(declare-fun x5 () Real)
(declare-fun x6 () Real)
(declare-fun x7 () Real)
(declare-fun x8 () Real)
(declare-fun x9 () Real)
(declare-fun x10 () Real)
(declare-fun x11 () Real)
(declare-fun x12 () Real)
(declare-fun x13 () Real)
(declare-fun x14 () Real)
(declare-fun x15 () Real)
(declare-fun x16 () Real)
(declare-fun x17 () Real)
(declare-fun x18 () Real)
(declare-fun x19 () Real)
(declare-fun x20 () Real)
(declare-fun x21 () Real)
(declare-fun x22 () Real)
(declare-fun x23 () Real)
(declare-fun x24 () Real)
(declare-fun x25 () Real)
(declare-fun x26 () Real)
(declare-fun x27 () Real)
(declare-fun x28 () Real)
(declare-fun x29 () Real)
(declare-fun f0_1 (Real) Real)
(declare-fun f0_2 (Real Real) Real)
(declare-fun f0_3 (Real Real Real) Real)
(declare-fun f0_4 (Real Real Real Real) Real)
(declare-fun P0 () Bool)
(declare-fun P1 () Bool)
(declare-fun P2 () Bool)
(declare-fun P3 () Bool)
(declare-fun P4 () Bool)
(declare-fun P5 () Bool)
(declare-fun P6 () Bool)
(declare-fun P7 () Bool)
(declare-fun P8 () Bool)
(declare-fun P9 () Bool)
(declare-fun P10 () Bool)
(declare-fun P11 () Bool)
(declare-fun P12 () Bool)
(declare-fun P13 () Bool)
(declare-fun P14 () Bool)
(declare-fun P15 () Bool)
(declare-fun P16 () Bool)
(declare-fun P17 () Bool)
(declare-fun P18 () Bool)
(declare-fun P19 () Bool)
(declare-fun P20 () Bool)
(declare-fun P21 () Bool)
(declare-fun P22 () Bool)
(declare-fun P23 () Bool)
(declare-fun P24 () Bool)
(declare-fun P25 () Bool)
(declare-fun P26 () Bool)
(declare-fun P27 () Bool)
(declare-fun P28 () Bool)
(declare-fun P29 () Bool)
(assert (let ((?v_31 (* 34 x8)) (?v_26 (* 35 x2)) (?v_92 (<= (+ (- (* 22 x22) (* 15 x5)) (* 17 x18)) 39)) (?v_56 (* 24 x3)) (?v_116 (= (+ (- (* 2 x25) (* 16 x18)) (* 39 x11)) 0)) (?v_81 (< (+ (- (* 15 x21) (* 34 x17)) (* 35 x26)) 9)) (?v_25 (distinct x7 (f0_1 x17))) (?v_24 (distinct (f0_2 x20 x15) (f0_1 x29))) (?v_30 (distinct x9 (f0_1 x23))) (?v_43 (f0_1 x14))) (let ((?v_102 (distinct ?v_43 (f0_2 x10 x9))) (?v_27 (distinct (f0_1 x10) (f0_2 x11 x27))) (?v_78 (distinct (f0_2 x2 x15) x10)) (?v_57 (f0_1 x21)) (?v_58 (f0_1 x4))) (let ((?v_65 (= ?v_57 ?v_58)) (?v_2 (f0_1 x20))) (let ((?v_91 (= ?v_2 x15)) (?v_72 (= x21 (f0_2 x4 x3))) (?v_70 (= x8 x11)) (?v_14 (= (f0_2 x6 x25) x7)) (?v_48 (= (f0_2 x7 x7) (f0_2 x5 x12))) (?v_131 (= (f0_1 x1) x0)) (?v_87 (distinct (f0_2 x25 x5) (f0_2 x18 x2))) (?v_62 (distinct x15 ?v_57)) (?v_12 (= (f0_1 x9) x18)) (?v_75 (distinct (f0_1 x19) x1)) (?v_35 (distinct (f0_1 x6) x25)) (?v_125 (= (f0_2 x2 x0) (f0_2 x5 x27))) (?v_50 (distinct x2 x4)) (?v_3 (= (f0_1 x24) (f0_2 x22 x23))) (?v_6 (f0_1 x28))) (let ((?v_40 (distinct ?v_6 (f0_2 x9 x20))) (?v_74 (distinct x23 x1)) (?v_10 (= (f0_2 x17 x14) (f0_1 x2))) (?v_106 (= ?v_2 ?v_58)) (?v_17 (= ?v_43 x20)) (?v_94 (distinct (f0_2 x1 x17) x17)) (?v_120 (distinct ?v_6 x7)) (?v_36 (distinct x13 (f0_2 x26 x4))) (?v_126 (= (f0_1 x16) x18)) (?v_8 (not ?v_50)) (?v_73 (not ?v_3)) (?v_1 (not P27)) (?v_110 (not ?v_35)) (?v_20 (not P5)) (?v_13 (not P17)) (?v_111 (not ?v_72))) (let ((?v_60 (not ?v_36)) (?v_4 (not ?v_106)) (?v_0 (not ?v_120)) (?v_71 (not ?v_126)) (?v_64 (not P21)) (?v_29 (not P8)) (?v_33 (not ?v_91)) (?v_66 (not P2)) (?v_103 (not ?v_27)) (?v_68 (not ?v_14)) (?v_9 (not ?v_40)) (?v_16 (not P10)) (?v_37 (not P6)) (?v_143 (not ?v_10)) (?v_97 (not ?v_25)) (?v_46 (not ?v_131)) (?v_54 (not ?v_12)) (?v_96 (not P11)) (?v_18 (not P22)) (?v_90 (not P12)) (?v_19 (not ?v_17)) (?v_136 (not P28)) (?v_41 (not ?v_92)) (?v_67 (not P25)) (?v_107 (not ?v_30)) (?v_47 (not P14)) (?v_53 (not ?v_102)) (?v_59 (not ?v_24)) (?v_61 (not ?v_62)) (?v_86 (not P0)) (?v_101 (not P15)) (?v_104 (not ?v_65)) (?v_115 (not P4)) (?v_114 (not P7)) (?v_79 (not P26)) (?v_99 (not ?v_70)) (?v_145 (or ?v_73 P8)) (?v_151 (not ?v_75)) (?v_134 (not ?v_81)) (?v_144 (not P29)) (?v_108 (not ?v_94)) (?v_119 (not ?v_87)) (?v_132 (not P1)) (?v_142 (not ?v_78)) (?v_133 (not ?v_48)) (?v_140 (not P13)) (?v_130 (not P9)) (?v_150 (not P16)) (?v_127 (not P23)) (?v_152 (not P18)) (?v_148 (not ?v_116)) (?v_146 (not P19)) (?v_138 (not ?v_125)) (?v_149 (not P20)) (?v_51 (< (+ (* 36 x18) (* 38 x11) (* 28 x10)) 21))) (let ((?v_113 (not ?v_51)) (?v_69 (< (+ (* 13 x0) (* 20 x18) (* 4 x12)) 26))) (let ((?v_122 (not ?v_69)) (?v_93 (< (+ (* 21 x1) (* 32 x27) (* 9 x15)) 40))) (let ((?v_141 (not ?v_93)) (?v_21 (< (- (+ (* (- 11) x22) (* 6 x8)) (* 27 x12)) (- 40)))) (let ((?v_49 (not ?v_21)) (?v_7 (< (+ (- x28 (* 25 x19)) (* 20 x10)) (- 4))) (?v_15 (= (+ (* (- 5) x27) ?v_56 (* 41 x9)) 32))) (let ((?v_124 (not ?v_15)) (?v_22 (< (+ (- (* (- 2) x15) (* 3 x14)) (* 18 x27)) (- 37)))) (let ((?v_32 (not ?v_22)) (?v_5 (<= (+ (* 8 x12) (* 38 x14) (* 18 x4)) (- 19))) (?v_11 (<= (+ (- (* 22 x17) (* 25 x1)) (* 14 x9)) (- 30)))) (let ((?v_88 (not ?v_11)) (?v_77 (< (- (- (* (- 7) x16) (* 20 x20)) (* 33 x5)) (- 16)))) (let ((?v_63 (not ?v_77)) (?v_121 (< (- (- (* 11 x4) (* 30 x11)) (* 35 x5)) (- 9))) (?v_44 (not ?v_7)) (?v_82 (< (+ (- (* 6 x11) 0) (* 18 x23)) (- 27)))) (let ((?v_55 (not ?v_82)) (?v_34 (< (+ (* (- 39) x1) (* 25 x21) (* 23 x7)) (- 30))) (?v_123 (<= (+ (- (* (- 25) x1) ?v_26) ?v_31) 4))) (let ((?v_105 (not ?v_123)) (?v_84 (< (- (+ (* (- 24) x29) (* 17 x19)) (* 15 x25)) (- 30))) (?v_135 (< (+ (* 21 x27) (* 2 x29) (* 12 x18)) (- 19)))) (let ((?v_28 (not ?v_135)) (?v_23 (= (- (+ (* (- 37) x27) (* 18 x21)) (* 32 x28)) (- 32)))) (let ((?v_128 (not ?v_23)) (?v_42 (not (distinct (+ (- ?v_26 0) (* 12 x21)) (- 25)))) (?v_52 (< (- (- (* (- 36) x3) ?v_31) (* 26 x19)) 0))) (let ((?v_45 (not ?v_52)) (?v_39 (< (- (+ (* (- 6) x15) (* 25 x12)) (* 40 x3)) 1)) (?v_38 (not ?v_34)) (?v_129 (<= (- (- (* 13 x2) (* 16 x3)) (* 10 x10)) (- 2)))) (let ((?v_89 (not ?v_129)) (?v_85 (not ?v_39)) (?v_95 (<= (- (+ (* (- 5) x21) (* 35 x24)) (* 28 x1)) (- 35))) (?v_76 (not ?v_5)) (?v_80 (< (+ (* (- 39) x17) (* 23 x19) ?v_56) 29)) (?v_83 (= (+ (- (* (- 35) x2) (* 39 x26)) (* 25 x3)) 40))) (let ((?v_117 (not ?v_83)) (?v_112 (< (+ (- (* (- 41) x0) 0) (* 21 x20)) (- 13))) (?v_100 (not ?v_80)) (?v_109 (<= (+ (* (- 35) x20) (* 18 x24) (* 19 x6)) (- 23))) (?v_137 (not ?v_84)) (?v_98 (not ?v_95))) (let ((?v_118 (not ?v_109)) (?v_139 (not ?v_112)) (?v_147 (not ?v_121))) (and (and (and (and (and (and (and (and (and (and (and (and (and (and (and (and (and (and (and (and (and (and (and (and (and (and (and (and (and (and (and (and (and (and (and (and (and (and (and (and (and (and (and (and (and (and (and (and (and (and (and (and (and (and (and (and (and (and (and (and (and (and (and (and (and (and (and (and (and (and (and (and (and (and (and (and (and (and (and (and (and (and (and (and (and (and (and (and (and (and (and (and (and (and (and (and (and (and (and (and (and (and (and (and (and (and (and (and (and (and (and (and (and (and (and (and (and (and (and (and (and (and (and (and (and (and (and (and (and (and (and (and (and (and (and (and (and (and (and (and (and (and (and (and (and (and (and (and (and (and (and (and (and (and (and (and (and (and (and (and (and (and (and (and (and (and (and (and (and (and (and (and (and (and (and (and (and (and (and (and (and (and (and (and (and (and (and (and (and (and (and (and (and (and (and (and (and (and (and (and (and (and (and (and (and (and (and (and (and (and (and (and (and (and (and (and (and (and (and (and (and (and (and (and (and (and (and (and (and (and (and (and (and (and (and (and (and (and (and (and (and (and (and (and (and (and (and (and (and (and (and (and (and (and (and (and (and (and (and (and (and (and (and (and (and (and (and (and (and (and (and (and (and (and (and (and (and (and (and (and (and (and (and (and (and (and (and (and (and (and (and (and (and (and (and (and (and (and (and (and (and (and (and (and (and (and (and (and (and (and (and (and (and (and (and (and (and (and (and (and (and (and (and (and (and (and (and (and (and (and (and (and (and (and (and (and (and (and (and (and (and (and (and (and (and (and (and (and (and (and (and (and (and (and (and (and (and (and (and (or (or ?v_8 ?v_73) ?v_1) (or (or ?v_49 ?v_110) ?v_20)) (or (or ?v_17 ?v_13) ?v_111)) (or (or ?v_60 ?v_4) ?v_7)) (or (or P2 ?v_0) ?v_71)) (or (or ?v_10 P3) P17)) (or (or P16 ?v_48) ?v_64)) (or (or ?v_0 ?v_29) ?v_1)) (or (or P16 ?v_124) ?v_33)) (or (or ?v_32 ?v_66) ?v_3)) (or (or P1 ?v_4) ?v_5)) (or (or ?v_88 P3) P0)) (or (or ?v_75 P27) ?v_63)) (or (or ?v_103 P14) ?v_68)) (or (or ?v_5 ?v_121) ?v_9)) (or (or ?v_24 ?v_16) ?v_44)) (or (or P13 ?v_8) ?v_87)) (or (or ?v_12 ?v_9) ?v_55)) (or (or ?v_34 ?v_37) ?v_143)) (or (or ?v_97 ?v_11) ?v_46)) (or (or P28 ?v_54) ?v_105)) (or (or ?v_13 ?v_14) ?v_7)) (or (or ?v_96 ?v_15) ?v_18)) (or (or P27 ?v_16) ?v_90)) (or (or ?v_19 ?v_84) ?v_78)) (or (or ?v_18 ?v_19) ?v_30)) (or (or ?v_28 ?v_23) ?v_1)) (or (or ?v_136 P8) ?v_17)) (or (or ?v_20 ?v_21) P13)) (or (or ?v_41 ?v_22) P17)) (or (or ?v_128 P22) P12)) (or (or ?v_24 ?v_25) ?v_42)) (or (or ?v_81 ?v_15) ?v_27)) (or (or ?v_67 ?v_28) ?v_29)) (or (or ?v_107 P22) ?v_27)) (or (or P10 P25) ?v_45)) (or (or ?v_32 ?v_33) P29)) (or (or ?v_39 ?v_38) ?v_27)) (or (or ?v_125 ?v_9) ?v_74)) (or (or P16 ?v_34) ?v_35)) (or (or ?v_5 P18) ?v_36)) (or (or ?v_19 P24) ?v_36)) (or (or ?v_33 ?v_37) ?v_35)) (or (or P15 ?v_89) ?v_5)) (or (or P21 ?v_21) P10)) (or (or ?v_113 ?v_38) P2)) (or (or ?v_39 ?v_29) ?v_21)) (or (or ?v_40 ?v_41) ?v_42)) (or (or P2 P13) ?v_16)) (or (or ?v_47 ?v_53) P1)) (or (or P16 ?v_44) ?v_45)) (or (or ?v_46 P28) P10)) (or (or ?v_47 ?v_48) ?v_33)) (or (or ?v_85 P3) ?v_49)) (or (or ?v_33 P20) P4)) (or (or ?v_25 ?v_50) ?v_51)) (or (or P0 ?v_51) P20)) (or (or ?v_33 ?v_52) ?v_95)) (or (or P23 P28) P4)) (or (or ?v_59 P11) ?v_61)) (or (or ?v_53 ?v_76) ?v_86)) (or (or P10 ?v_54) ?v_40)) (or (or ?v_19 ?v_55) P27)) (or (or ?v_101 ?v_80) P13)) (or (or P22 ?v_104) ?v_59)) (or (or P1 P20) ?v_60)) (or (or ?v_34 ?v_70) P11)) (or (or ?v_61 ?v_62) ?v_63)) (or (or P15 ?v_63) ?v_64)) (or (or ?v_54 ?v_115) ?v_63)) (or (or ?v_61 ?v_41) ?v_122)) (or (or ?v_65 ?v_66) ?v_13)) (or (or ?v_114 ?v_67) ?v_79)) (or (or ?v_41 ?v_68) ?v_69)) (or (or ?v_99 ?v_46) ?v_48)) (or (or ?v_0 ?v_117) ?v_71)) (or (or ?v_25 ?v_72) ?v_47)) (or ?v_145 ?v_49)) (or (or (not ?v_74) ?v_33) P24)) (or (or ?v_151 ?v_76) ?v_116)) (or (or ?v_77 ?v_3) P20)) (or (or ?v_78 ?v_34) ?v_112)) (or (or ?v_79 ?v_100) ?v_41)) (or (or ?v_134 ?v_109) ?v_7)) (or (or ?v_39 ?v_82) ?v_83)) (or (or ?v_137 ?v_22) ?v_85)) (or (or ?v_81 ?v_93) ?v_48)) (or (or P3 ?v_62) ?v_144)) (or (or P12 ?v_80) ?v_86)) (or (or ?v_87 P23) ?v_7)) (or (or ?v_88 ?v_68) ?v_89)) (or (or ?v_90 ?v_51) ?v_62)) (or (or ?v_7 ?v_11) P2)) (or (or ?v_75 ?v_49) ?v_53)) (or (or ?v_89 P6) ?v_8)) (or (or P1 ?v_34) ?v_108)) (or (or ?v_91 ?v_92) ?v_93)) (or (or P15 ?v_44) ?v_72)) (or (or ?v_81 ?v_94) ?v_98)) (or (or P12 ?v_29) ?v_53)) (or (or ?v_119 ?v_40) ?v_96)) (or (or ?v_23 ?v_97) ?v_132)) (or (or ?v_142 ?v_95) ?v_51)) (or (or P19 ?v_98) ?v_70)) (or (or ?v_99 P7) ?v_0)) (or (or ?v_100 P9) ?v_101)) (or (or ?v_74 ?v_35) ?v_79)) (or (or P20 ?v_39) ?v_102)) (or (or ?v_59 ?v_55) ?v_81)) (or (or P7 ?v_103) ?v_11)) (or (or ?v_20 ?v_104) ?v_103)) (or (or ?v_46 P11) ?v_32)) (or (or ?v_105 ?v_0) P29)) (or (or P9 ?v_64) P23)) (or (or ?v_106 P7) ?v_16)) (or (or ?v_72 ?v_107) ?v_5)) (or (or ?v_141 ?v_133) P2)) (or (or ?v_107 ?v_47) ?v_17)) (or (or P27 ?v_44) ?v_108)) (or (or ?v_13 ?v_70) ?v_20)) (or (or ?v_118 ?v_110) P11)) (or (or ?v_111 ?v_68) P12)) (or (or ?v_73 P6) ?v_139)) (or (or ?v_0 ?v_55) ?v_74)) (or (or ?v_90 ?v_36) P15)) (or (or ?v_33 ?v_54) ?v_88)) (or (or ?v_28 ?v_72) ?v_140)) (or (or ?v_113 ?v_114) P12)) (or (or P29 ?v_115) ?v_106)) (or (or ?v_34 P3) ?v_36)) (or (or P4 ?v_130) ?v_150)) (or (or ?v_61 ?v_39) ?v_32)) (or (or ?v_60 ?v_116) ?v_117)) (or (or ?v_103 ?v_68) ?v_54)) (or (or ?v_24 ?v_98) P13)) (or (or ?v_12 P3) ?v_9)) (or (or ?v_22 ?v_107) P19)) (or (or ?v_118 ?v_24) ?v_74)) (or (or ?v_119 ?v_91) ?v_55)) (or (or ?v_108 P18) ?v_48)) (or (or ?v_68 ?v_81) ?v_42)) (or (or P26 ?v_100) ?v_81)) (or (or ?v_84 ?v_120) ?v_107)) (or (or ?v_33 ?v_121) ?v_114)) (or (or P29 ?v_82) ?v_104)) (or (or ?v_50 ?v_1) ?v_12)) (or (or ?v_51 P15) P19)) (or (or ?v_94 ?v_76) ?v_105)) (or (or ?v_51 ?v_106) ?v_122)) (or (or ?v_116 ?v_66) ?v_82)) (or (or ?v_25 ?v_115) ?v_106)) (or (or P11 ?v_123) ?v_33)) (or (or P7 ?v_108) ?v_124)) (or (or P26 ?v_91) ?v_125)) (or (or P8 ?v_29) P22)) (or (or ?v_92 ?v_127) ?v_55)) (or (or ?v_3 ?v_114) ?v_12)) (or (or ?v_4 ?v_126) ?v_101)) (or (or ?v_82 ?v_52) ?v_127)) (or (or ?v_55 ?v_105) ?v_128)) (or (or P22 ?v_28) ?v_65)) (or (or P9 P14) ?v_8)) (or (or ?v_72 P21) ?v_74)) (or (or ?v_66 ?v_54) ?v_106)) (or (or ?v_78 ?v_42) ?v_77)) (or (or ?v_129 ?v_93) ?v_130)) (or (or ?v_125 ?v_23) ?v_95)) (or (or P8 P19) P28)) (or (or ?v_152 P22) ?v_113)) (or (or ?v_89 ?v_75) ?v_148)) (or (or ?v_7 ?v_47) ?v_49)) (or (or ?v_24 ?v_30) ?v_99)) (or (or ?v_124 ?v_17) ?v_114)) (or (or (not P24) ?v_4) ?v_29)) (or (or ?v_11 ?v_35) ?v_61)) (or (or ?v_29 ?v_59) ?v_89)) (or (or ?v_131 ?v_15) P12)) (or (or ?v_91 ?v_63) ?v_126)) (or (or ?v_51 ?v_78) ?v_132)) (or (or ?v_146 ?v_19) ?v_3)) (or (or ?v_88 ?v_126) ?v_104)) (or (or ?v_95 ?v_9) ?v_38)) (or (or P24 ?v_108) ?v_80)) (or (or ?v_114 ?v_61) ?v_14)) (or (or ?v_17 ?v_133) ?v_46)) (or (or ?v_134 ?v_77) ?v_61)) (or (or ?v_115 ?v_135) P0)) (or (or ?v_55 ?v_125) ?v_116)) (or (or ?v_86 ?v_80) ?v_32)) (or (or ?v_54 ?v_45) ?v_86)) (or (or ?v_78 P25) P1)) (or (or ?v_130 ?v_12) ?v_39)) (or (or ?v_24 ?v_136) ?v_97)) (or (or ?v_53 ?v_18) ?v_121)) (or (or P19 ?v_27) ?v_90)) (or (or ?v_71 ?v_55) ?v_129)) (or (or ?v_124 ?v_5) ?v_138)) (or (or ?v_60 ?v_30) ?v_32)) (or (or ?v_33 ?v_50) ?v_18)) (or (or ?v_81 ?v_137) ?v_51)) (or (or ?v_66 ?v_109) ?v_84)) (or (or ?v_99 P29) ?v_37)) (or (or ?v_138 ?v_85) ?v_79)) (or (or P7 P29) ?v_19)) (or (or P29 ?v_60) ?v_17)) (or (or ?v_20 ?v_42) ?v_149)) (or (or ?v_96 ?v_33) ?v_7)) (or (or ?v_84 ?v_47) (< (+ (* (- 15) x0) (* 36 x1) (* 27 x9)) (- 41)))) (or (or ?v_53 P29) ?v_106)) (or (or ?v_86 ?v_139) ?v_9)) (or (or ?v_140 P2) ?v_110)) (or (or P9 ?v_0) ?v_133)) (or (or ?v_110 ?v_7) ?v_134)) (or (or ?v_20 ?v_123) ?v_76)) (or (or ?v_73 ?v_81) ?v_110)) (or (or ?v_88 ?v_17) ?v_86)) (or (or ?v_133 ?v_41) ?v_23)) (or (or ?v_39 ?v_119) ?v_141)) (or (or ?v_3 P9) ?v_136)) (or (or ?v_88 ?v_94) P12)) (or (or ?v_142 ?v_143) ?v_39)) (or (or P28 P29) ?v_19)) (or (or ?v_104 ?v_104) ?v_136)) (or (or ?v_131 ?v_140) ?v_44)) (or (or ?v_107 ?v_127) ?v_49)) (or (or P19 ?v_32) ?v_54)) (or (or P25 ?v_52) ?v_14)) (or (or ?v_123 P13) ?v_133)) (or (or ?v_29 ?v_32) ?v_0)) (or (or ?v_120 ?v_142) ?v_100)) (or (or ?v_84 ?v_105) ?v_120)) (or (or ?v_62 ?v_46) ?v_118)) (or (or ?v_66 ?v_87) ?v_21)) (or (or ?v_98 ?v_11) ?v_97)) (or (or P7 ?v_111) P22)) (or (or ?v_109 ?v_78) P5)) (or (or P22 ?v_1) ?v_61)) (or (or P10 ?v_106) ?v_131)) (or (or ?v_68 ?v_42) ?v_143)) (or (or ?v_144 ?v_11) ?v_18)) (or (or P28 ?v_34) ?v_30)) (or (or P1 ?v_147) ?v_117)) (or (or ?v_18 ?v_144) ?v_20)) (or (or ?v_5 ?v_139) ?v_143)) (or (or ?v_137 ?v_103) ?v_76)) (or ?v_145 ?v_134)) (or (or P12 ?v_120) ?v_46)) (or (or ?v_73 ?v_146) P11)) (or (or ?v_129 ?v_24) ?v_70)) (or (or ?v_25 ?v_143) ?v_11)) (or (or ?v_51 ?v_109) ?v_60)) (or (or ?v_114 ?v_81) ?v_1)) (or (or ?v_118 P8) ?v_69)) (or (or P19 ?v_147) ?v_61)) (or (or ?v_134 ?v_76) ?v_109)) (or (or ?v_90 ?v_5) ?v_82)) (or (or ?v_39 ?v_143) ?v_45)) (or (or ?v_120 ?v_137) P6)) (or (or ?v_118 ?v_88) ?v_130)) (or (or ?v_33 ?v_17) ?v_67)) (or (or ?v_81 ?v_23) ?v_24)) (or (or ?v_75 ?v_1) ?v_79)) (or (or ?v_106 ?v_38) ?v_10)) (or (or ?v_125 ?v_139) ?v_123)) (or (or ?v_37 ?v_116) ?v_122)) (or (or ?v_103 ?v_48) ?v_73)) (or (or ?v_93 ?v_7) ?v_66)) (or (or ?v_97 ?v_103) ?v_46)) (or (or P19 ?v_96) P9)) (or (or ?v_96 ?v_87) ?v_92)) (or (or ?v_36 ?v_147) ?v_54)) (or (or ?v_137 P27) P23)) (or (or ?v_40 ?v_139) ?v_107)) (or (or ?v_119 ?v_131) ?v_5)) (or (or ?v_32 ?v_10) P11)) (or (or ?v_144 ?v_82) ?v_53)) (or (or ?v_61 P23) ?v_130)) (or (or ?v_148 ?v_103) ?v_66)) (or (or ?v_146 ?v_102) ?v_42)) (or (or ?v_38 ?v_89) P3)) (or (or ?v_73 ?v_104) ?v_54)) (or (or ?v_20 ?v_141) ?v_138)) (or (or ?v_114 ?v_64) ?v_106)) (or (or ?v_132 P14) ?v_25)) (or (or ?v_92 ?v_99) ?v_112)) (or (or ?v_48 ?v_3) ?v_116)) (or (or P15 ?v_19) P8)) (or (or ?v_82 ?v_54) ?v_108)) (or (or ?v_35 ?v_149) ?v_82)) (or (or ?v_77 P14) P5)) (or (or ?v_65 ?v_87) ?v_49)) (or (or P24 ?v_63) ?v_91)) (or (or ?v_62 P15) ?v_22)) (or (or ?v_115 P27) ?v_79)) (or (or P26 ?v_103) P15)) (or (or ?v_147 ?v_150) ?v_65)) (or (or ?v_142 ?v_141) ?v_85)) (or (or ?v_75 ?v_20) ?v_98)) (or (or P5 ?v_87) ?v_89)) (or (or ?v_72 ?v_104) ?v_86)) (or (or ?v_0 ?v_69) ?v_89)) (or (or ?v_98 ?v_55) P16)) (or (or ?v_63 P2) P4)) (or (or ?v_105 P12) ?v_147)) (or (or ?v_105 ?v_83) ?v_11)) (or (or ?v_60 ?v_107) ?v_130)) (or (or ?v_92 ?v_54) ?v_53)) (or (or ?v_131 ?v_128) ?v_62)) (or (or ?v_134 P11) ?v_54)) (or (or P17 P20) ?v_15)) (or (or ?v_30 ?v_118) ?v_151)) (or (or P18 ?v_115) P6)) (or (or ?v_77 P16) ?v_81)) (or (or ?v_50 ?v_74) ?v_16)) (or (or ?v_127 ?v_49) ?v_60)) (or (or ?v_36 ?v_46) ?v_146)) (or (or ?v_118 ?v_81) ?v_103)) (or (or ?v_71 P24) P14)) (or (or ?v_59 ?v_0) ?v_14)) (or (or ?v_53 P25) ?v_25)) (or (or ?v_12 ?v_118) ?v_100)) (or (or P19 ?v_99) ?v_134)) (or (or ?v_87 ?v_148) ?v_99)) (or (or ?v_14 ?v_79) ?v_118)) (or (or ?v_19 ?v_142) ?v_86)) (or (or ?v_108 ?v_125) ?v_48)) (or (or ?v_82 ?v_152) ?v_65)) (or (or ?v_127 P14) ?v_46)) (or (or ?v_94 P3) ?v_1)) (or (or P8 ?v_48) ?v_106)) (or (or P22 P3) ?v_59)) (or (or ?v_63 ?v_17) ?v_24)) (or (or ?v_30 ?v_47) ?v_68)) (or (or ?v_133 ?v_50) ?v_40)) (or (or ?v_62 P16) ?v_82)) (or (or ?v_130 P26) ?v_14)) (or (or ?v_0 ?v_51) P1)) (or (or ?v_68 ?v_101) ?v_13)) (or (or ?v_22 ?v_9) P22)) (or (or ?v_52 ?v_135) ?v_20)) (or (or ?v_132 P17) ?v_127)) (or (or ?v_85 ?v_103) P14)) (or (or ?v_108 ?v_53) ?v_142)) (or (or ?v_135 ?v_132) ?v_117)) (or (or ?v_152 ?v_89) ?v_138)) (or (or P25 P15) ?v_91)) (or (or ?v_90 ?v_77) ?v_52)) (or (or ?v_113 ?v_97) ?v_69)) (or (or ?v_47 ?v_111) ?v_10)) (or (or ?v_69 ?v_41) ?v_118)) (or (or ?v_127 ?v_13) ?v_123)) (or (or ?v_23 ?v_59) ?v_136)) (or (or ?v_29 P12) ?v_20)) (or (or P18 ?v_45) ?v_24)) (or (or ?v_119 ?v_104) ?v_8)) (or (or ?v_124 (not P3)) P19)) (or (or P13 P27) P25)) (or (or ?v_45 ?v_16) ?v_50)) (or (or P29 P24) P2)) (or (or ?v_12 ?v_41) ?v_114)))))))))))))))))))))))))
(check-sat)
(exit)
